
Gurobi 8.1.0 (mac64, Python) logging started Thu Nov  1 01:00:43 2018

Academic license - for non-commercial use only

Gurobi 8.1.0 (mac64, Python) logging started Thu Nov  1 17:12:20 2018

Academic license - for non-commercial use only

Gurobi 8.1.0 (mac64, Python) logging started Thu Nov  1 23:47:20 2018

Academic license - for non-commercial use only

Gurobi 8.1.0 (mac64, Python) logging started Thu Nov  1 23:49:40 2018

Academic license - for non-commercial use only

Gurobi 8.1.0 (mac64, Python) logging started Thu Dec  6 01:22:15 2018

Academic license - for non-commercial use only

Gurobi 8.1.0 (mac64, Python) logging started Sat Jan 26 18:16:02 2019

Academic license - for non-commercial use only

Gurobi 8.1.0 (mac64, Python) logging started Sat Jan 26 18:31:22 2019

Academic license - for non-commercial use only

Gurobi 8.1.0 (mac64, Python) logging started Sat Jan 26 18:41:09 2019

Academic license - for non-commercial use only
